# Data section
data;

set ParkingLots := p1 p2 p3 p4 p5;
set WaitingCars := Car1 Car2 Car3 Car4 Car5 Car6 Car7 Car8 Car9 Car10;

param :
        maxCarCapacity :=
    p1     25
    p2     25
    p3     25
    p4     25
    p5     25;

param :
        initNumOfCar :=
    p1     8
    p2     9
    p3     9
    p4     9
    p5     9;